param n := 10
;

param delta := 1.5
;

param coordX :=
0   98
1   80
2   58
3    8
4   64
5   31
6   56
7   37
8   39
9   23
10  32
;

param coordY :=
0   60
1    6
2    3
3   87
4   48
5   73
6    6
7   16
8   35
9   33
10  51
;
